
Log started (V11.0.0) Sun Apr 13 13:37:39 2008

Tried aggregator 1 time.
Reduced MIP has 220 rows, 4001 columns, and 8020 nonzeros.
Presolve time =    0.03 sec.
Clique table members: 200.
MIP emphasis: balance optimality and feasibility.
MIP search method: dynamic search.
Parallel mode: none, using 1 thread.
Root relaxation solution time =    0.08 sec.

        Nodes                                         Cuts/
   Node  Left     Objective  IInf  Best Integer     Best Node    ItCnt     Gap

*     0+    0                         9629.0000       58.4560      484   99.39%
*     0+    0                           70.0000       58.4560      484   16.49%
      0     0       59.0000    33       70.0000      Fract: 9      497   15.71%
*     0+    0                           68.0000       59.0000      497   13.24%
      0     0       59.0000    37       68.0000     Covers: 2      518   13.24%
*     0+    0                           67.0000       59.0000      518   11.94%
      0     0       59.0000    37       67.0000     Covers: 2      530   11.94%
*     0+    0                           66.0000       59.0000      530   10.61%
*     0+    0                           65.0000       59.0000      530    9.23%

Repeating presolve.
Tried aggregator 1 time.
MIP Presolve eliminated 0 rows and 1401 columns.
Reduced MIP has 220 rows, 2600 columns, and 5218 nonzeros.
Tried aggregator 1 time.
Represolve time =    0.12 sec.
Clique table members: 422.
MIP emphasis: balance optimality and feasibility.
MIP search method: dynamic search.
Parallel mode: none, using 1 thread.
Root relaxation solution time =    0.05 sec.

        Nodes                                         Cuts/
   Node  Left     Objective  IInf  Best Integer     Best Node    ItCnt     Gap

      0     0       59.0000    37       65.0000       59.0000      416    9.23%
*     0+    0                           64.0000       59.0000      416    7.81%
*     0+    0                           63.0000       59.0000      416    6.35%
      0     2       59.0000    37       63.0000       59.0000      416    6.35%
    100    75       60.0000    22       63.0000       59.0000     3088    6.35%
*   200+  113                           62.0000       59.0000     5524    4.84%
    200   115       60.0000    34       62.0000       59.0000     5524    4.84%
    300   199       60.0000    33       62.0000       59.0000     7913    4.84%
    400   288       60.0000    51       62.0000       59.0000    10437    4.84%
    500   365       60.0000    41       62.0000       59.0000    13272    4.84%
*   514+  252                           61.0000       59.1300    14717    3.07%
    600   219       60.0000    78       61.0000       60.0000    24401    1.64%
    700   175    infeasible             61.0000       60.0000    41447    1.64%
    800   116       60.0000   105       61.0000       60.0000    67583    1.64%
    900    97       60.0000    78       61.0000       60.0000    98987    1.64%
   1000   119       60.0000    72       61.0000       60.0000   135899    1.64%
Elapsed time =  34.03 sec. (tree size =  0.90 MB, solutions = 10)
   1100   151       60.0000    74       61.0000       60.0000   164183    1.64%
   1200   149       60.0000   113       61.0000       60.0000   206562    1.64%
   1300   167       60.0000   116       61.0000       60.0000   247399    1.64%
   1400   199       60.0000   133       61.0000       60.0000   282372    1.64%
*  1464     0      integral     0       60.0000       60.0000   299955    0.00%

Cover cuts applied:  767
Mixed integer rounding cuts applied:  26
Zero-half cuts applied:  2
Gomory fractional cuts applied:  13

Solution pool: 11 solutions saved.

MIP - Integer optimal solution:  Objective = 6.0000000000e+001
Solution time =   78.39 sec.  Iterations = 299955  Nodes = 1465


Incumbent solution
Variable Name           Solution Value
Cmax                         60.000000
X_1_4                         1.000000
X_2_3                         1.000000
X_3_2                         1.000000
X_4_4                         1.000000
X_5_14                        1.000000
X_6_6                         1.000000
X_6_13                        0.000000
X_7_8                         1.000000
X_8_2                         1.000000
X_9_7                         1.000000
X_10_7                        1.000000
X_11_13                       1.000000
X_12_17                       1.000000
X_13_8                        1.000000
X_14_20                       1.000000
X_15_2                        1.000000
X_16_14                       1.000000
X_17_15                       1.000000
X_18_15                       1.000000
X_19_11                       1.000000
X_20_6                        1.000000
X_21_15                       1.000000
X_22_17                       1.000000
X_23_4                        1.000000
X_24_19                       1.000000
X_25_11                       1.000000
X_26_4                        1.000000
X_27_12                       1.000000
X_28_4                        1.000000
X_29_6                        1.000000
X_30_2                        1.000000
X_31_20                       1.000000
X_32_9                        1.000000
X_33_17                       1.000000
X_34_6                        1.000000
X_35_9                        1.000000
X_36_6                        1.000000
X_37_8                        1.000000
X_38_7                        1.000000
X_39_7                        1.000000
X_40_13                       1.000000
X_41_5                        1.000000
X_42_3                        1.000000
X_43_19                       1.000000
X_44_9                        1.000000
X_45_10                       1.000000
X_46_3                        1.000000
X_47_15                       1.000000
X_48_4                        1.000000
X_49_5                        1.000000
X_50_12                       1.000000
X_51_8                        1.000000
X_52_1                        1.000000
X_53_11                       1.000000
X_54_1                        1.000000
X_55_9                        1.000000
X_56_7                        1.000000
X_57_7                        1.000000
X_58_3                        1.000000
X_59_1                        1.000000
X_60_13                       1.000000
X_61_3                        1.000000
X_62_19                       1.000000
X_63_4                        1.000000
X_64_20                       1.000000
X_65_20                       1.000000
X_66_18                       1.000000
X_67_8                        1.000000
X_68_8                        0.000000
X_68_17                       1.000000
X_69_18                       1.000000
X_70_2                        1.000000
X_71_1                        1.000000
X_72_20                       1.000000
X_73_11                       1.000000
X_74_5                        1.000000
X_75_3                        1.000000
X_76_14                       1.000000
X_77_8                        1.000000
X_78_11                       1.000000
X_79_1                        1.000000
X_80_13                       1.000000
X_81_13                       1.000000
X_82_6                        1.000000
X_83_6                        1.000000
X_84_15                       1.000000
X_85_15                       1.000000
X_86_20                       1.000000
X_87_7                        1.000000
X_88_3                        1.000000
X_89_18                       1.000000
X_90_20                       1.000000
X_91_12                       1.000000
X_92_18                       1.000000
X_93_8                        1.000000
X_94_16                       1.000000
X_95_1                        1.000000
X_96_11                       1.000000
X_97_8                        1.000000
X_98_14                       1.000000
X_99_6                        1.000000
X_100_6                       1.000000
X_101_3                       1.000000
X_102_13                      1.000000
X_103_7                       1.000000
X_104_18                      1.000000
X_105_1                       1.000000
X_106_12                      1.000000
X_107_10                      1.000000
X_108_3                       1.000000
X_109_8                       1.000000
X_110_16                      1.000000
X_111_3                       1.000000
X_112_10                      1.000000
X_113_16                      1.000000
X_114_7                       1.000000
X_115_13                      1.000000
X_116_20                      1.000000
X_117_2                       1.000000
X_118_4                       1.000000
X_119_5                       1.000000
X_120_18                      1.000000
X_121_18                      1.000000
X_122_6                       1.000000
X_123_18                      1.000000
X_124_14                      1.000000
X_125_19                      1.000000
X_126_17                      1.000000
X_127_12                      1.000000
X_128_17                      1.000000
X_129_17                      1.000000
X_130_7                       1.000000
X_131_5                       1.000000
X_132_9                       1.000000
X_133_19                      1.000000
X_134_4                       1.000000
X_135_19                      1.000000
X_136_16                      1.000000
X_137_14                      1.000000
X_138_8                       1.000000
X_139_2                       1.000000
X_140_7                       1.000000
X_141_2                       1.000000
X_142_10                      1.000000
X_143_11                      1.000000
X_144_12                      1.000000
X_145_11                      1.000000
X_146_16                      1.000000
X_147_6                       1.000000
X_148_5                       1.000000
X_149_8                       1.000000
X_150_7                       1.000000
X_151_1                       1.000000
X_152_16                      1.000000
X_153_3                       1.000000
X_154_10                      1.000000
X_155_15                      1.000000
X_156_15                      1.000000
X_157_12                      1.000000
X_158_13                      1.000000
X_159_13                      1.000000
X_160_14                      1.000000
X_161_9                       1.000000
X_162_6                       1.000000
X_163_13                      1.000000
X_164_13                      1.000000
X_165_19                      1.000000
X_166_17                      1.000000
X_167_12                      1.000000
X_168_8                       1.000000
X_169_12                      1.000000
X_170_4                       1.000000
X_171_19                      1.000000
X_172_14                      1.000000
X_173_13                      1.000000
X_174_2                       1.000000
X_175_8                       1.000000
X_176_14                      1.000000
X_177_12                      1.000000
X_178_12                      1.000000
X_179_6                       1.000000
X_180_3                       1.000000
X_181_12                      1.000000
X_182_1                       1.000000
X_183_13                      1.000000
X_184_17                      1.000000
X_185_16                      1.000000
X_186_19                      1.000000
X_187_9                       1.000000
X_188_7                       1.000000
X_189_20                      1.000000
X_190_20                      1.000000
X_191_17                      1.000000
X_192_3                       1.000000
X_193_16                      1.000000
X_194_7                       1.000000
X_195_15                      1.000000
X_196_11                      1.000000
X_197_3                       1.000000
X_198_19                      1.000000
X_199_11                      1.000000
X_200_10                      1.000000
All other variables in the range 1-4001 are 0.
